(set-info :smt-lib-version 2.6)
(set-logic QF_FP)
(set-info :source |
Generated by: Chenqi Cui
Generated on: 2025-11-30
Generator: AutoSMTGen
Application: Generating SMT constraints with small solution spaces to make them challenging for SMT solvers
Target solver: Z3, CVC5, Bitwuzla
|)
(set-info :license "https://creativecommons.org/licenses/by/4.0/")
(set-info :category "industrial")
(set-info :status sat)
; benchmark generated from python API

(declare-fun x9 () (_ FloatingPoint 11 53))
(declare-fun x8 () (_ FloatingPoint 11 53))
(declare-fun x7 () (_ FloatingPoint 11 53))
(declare-fun x6 () (_ FloatingPoint 11 53))
(declare-fun x5 () (_ FloatingPoint 11 53))
(declare-fun x4 () (_ FloatingPoint 11 53))
(declare-fun x3 () (_ FloatingPoint 11 53))
(declare-fun x2 () (_ FloatingPoint 11 53))
(declare-fun x1 () (_ FloatingPoint 11 53))
(declare-fun x0 () (_ FloatingPoint 11 53))
(assert
 (let ((?x20 (fp.add roundNearestTiesToEven (fp.mul roundNearestTiesToEven (fp #b1 #b10000000010 #x6ca5001b6e027) x0) (fp.mul roundNearestTiesToEven (fp #b0 #b10000000100 #x5cb18afc77164) x1))))
 (let ((?x23 (fp.add roundNearestTiesToEven ?x20 (fp.mul roundNearestTiesToEven (fp #b0 #b10000000100 #x70cbe54134676) x2))))
 (let ((?x26 (fp.add roundNearestTiesToEven ?x23 (fp.mul roundNearestTiesToEven (fp #b0 #b10000000000 #x903850a9fa3eb) x3))))
 (let ((?x29 (fp.add roundNearestTiesToEven ?x26 (fp.mul roundNearestTiesToEven (fp #b0 #b10000000011 #x75f35ad8b2945) x4))))
 (let ((?x32 (fp.add roundNearestTiesToEven ?x29 (fp.mul roundNearestTiesToEven (fp #b1 #b10000000010 #xa5e9479cb46ab) x5))))
 (let ((?x35 (fp.add roundNearestTiesToEven ?x32 (fp.mul roundNearestTiesToEven (fp #b1 #b10000000101 #x01ee7eec051ce) x6))))
 (let ((?x38 (fp.add roundNearestTiesToEven ?x35 (fp.mul roundNearestTiesToEven (fp #b0 #b10000000101 #x50663e9679855) x7))))
 (let ((?x41 (fp.add roundNearestTiesToEven ?x38 (fp.mul roundNearestTiesToEven (fp #b1 #b10000000100 #xf38d10dc02a39) x8))))
 (let ((?x44 (fp.add roundNearestTiesToEven ?x41 (fp.mul roundNearestTiesToEven (fp #b0 #b10000000101 #x4a9c656dd19ac) x9))))
 (fp.leq ?x44 (fp #b0 #b10000000101 #x54ad570f27662))))))))))))
(assert
 (let ((?x68 (fp.add roundNearestTiesToEven (fp.mul roundNearestTiesToEven (fp #b0 #b10000000101 #x2e92906c27e2e) x0) (fp.mul roundNearestTiesToEven (fp #b1 #b10000000011 #x5ad941ce1980b) x1))))
 (let ((?x71 (fp.add roundNearestTiesToEven ?x68 (fp.mul roundNearestTiesToEven (fp #b1 #b10000000100 #xeac22bb6161fe) x2))))
 (let ((?x74 (fp.add roundNearestTiesToEven ?x71 (fp.mul roundNearestTiesToEven (fp #b1 #b10000000100 #x0ed0d99cf90f5) x3))))
 (let ((?x77 (fp.add roundNearestTiesToEven ?x74 (fp.mul roundNearestTiesToEven (fp #b1 #b10000000011 #x3d2657efc26ac) x4))))
 (let ((?x80 (fp.add roundNearestTiesToEven ?x77 (fp.mul roundNearestTiesToEven (fp #b1 #b10000000100 #xba447f834763a) x5))))
 (let ((?x83 (fp.add roundNearestTiesToEven ?x80 (fp.mul roundNearestTiesToEven (fp #b0 #b10000000011 #xe654624b97d12) x6))))
 (let ((?x86 (fp.add roundNearestTiesToEven ?x83 (fp.mul roundNearestTiesToEven (fp #b0 #b10000000100 #xdea0b8c2ad63c) x7))))
 (let ((?x89 (fp.add roundNearestTiesToEven ?x86 (fp.mul roundNearestTiesToEven (fp #b1 #b10000000101 #xcdc881bff9d07) x8))))
 (let ((?x92 (fp.add roundNearestTiesToEven ?x89 (fp.mul roundNearestTiesToEven (fp #b0 #b10000000100 #xb391afcb9db09) x9))))
 (fp.leq ?x92 (fp #b1 #b10000000100 #xc7170018ac8e2))))))))))))
(assert
 (let ((?x99 (fp.add roundNearestTiesToEven (fp.mul roundNearestTiesToEven (fp #b1 #b10000000011 #xa6b6157795a7d) x0) (fp.mul roundNearestTiesToEven (fp #b0 #b10000000100 #xf4f0f934bb133) x1))))
 (let ((?x102 (fp.add roundNearestTiesToEven ?x99 (fp.mul roundNearestTiesToEven (fp #b1 #b10000000100 #x54ff83acfc368) x2))))
 (let ((?x105 (fp.add roundNearestTiesToEven ?x102 (fp.mul roundNearestTiesToEven (fp #b1 #b10000000100 #x322c3197df27e) x3))))
 (let ((?x108 (fp.add roundNearestTiesToEven ?x105 (fp.mul roundNearestTiesToEven (fp #b1 #b10000000100 #xdac13f28ad303) x4))))
 (let ((?x111 (fp.add roundNearestTiesToEven ?x108 (fp.mul roundNearestTiesToEven (fp #b1 #b10000000101 #x0aa87717a24c2) x5))))
 (let ((?x114 (fp.add roundNearestTiesToEven ?x111 (fp.mul roundNearestTiesToEven (fp #b0 #b10000000101 #x4024e488a70aa) x6))))
 (let ((?x117 (fp.add roundNearestTiesToEven ?x114 (fp.mul roundNearestTiesToEven (fp #b1 #b10000000101 #x517a3eb24f388) x7))))
 (let ((?x120 (fp.add roundNearestTiesToEven ?x117 (fp.mul roundNearestTiesToEven (fp #b0 #b10000000100 #xbaffd9011670f) x8))))
 (let ((?x123 (fp.add roundNearestTiesToEven ?x120 (fp.mul roundNearestTiesToEven (fp #b1 #b10000000101 #x84f914343f49f) x9))))
 (fp.leq ?x123 (fp #b0 #b10000000101 #x90bf91dc5d7d5))))))))))))
(assert
 (let ((?x130 (fp.add roundNearestTiesToEven (fp.mul roundNearestTiesToEven (fp #b0 #b10000000100 #x32a2ef6326b1b) x0) (fp.mul roundNearestTiesToEven (fp #b1 #b10000000100 #xc640ac0ed3c69) x1))))
 (let ((?x133 (fp.add roundNearestTiesToEven ?x130 (fp.mul roundNearestTiesToEven (fp #b0 #b10000000011 #x8725097687daf) x2))))
 (let ((?x136 (fp.add roundNearestTiesToEven ?x133 (fp.mul roundNearestTiesToEven (fp #b0 #b10000000101 #x20474548a523d) x3))))
 (let ((?x139 (fp.add roundNearestTiesToEven ?x136 (fp.mul roundNearestTiesToEven (fp #b1 #b10000000100 #x5674f6dc6d4cd) x4))))
 (let ((?x142 (fp.add roundNearestTiesToEven ?x139 (fp.mul roundNearestTiesToEven (fp #b0 #b10000000101 #x58d6efcda42c7) x5))))
 (let ((?x145 (fp.add roundNearestTiesToEven ?x142 (fp.mul roundNearestTiesToEven (fp #b0 #b10000000011 #x4785c785196e4) x6))))
 (let ((?x148 (fp.add roundNearestTiesToEven ?x145 (fp.mul roundNearestTiesToEven (fp #b0 #b10000000011 #xd39ab370e44d0) x7))))
 (let ((?x151 (fp.add roundNearestTiesToEven ?x148 (fp.mul roundNearestTiesToEven (fp #b1 #b10000000101 #x724e30afa0f72) x8))))
 (let ((?x154 (fp.add roundNearestTiesToEven ?x151 (fp.mul roundNearestTiesToEven (fp #b1 #b10000000101 #x3f9b6dc0bed82) x9))))
 (fp.leq ?x154 (fp #b0 #b10000000101 #x717fea8fc7d5e))))))))))))
(assert
 (let ((?x161 (fp.add roundNearestTiesToEven (fp.mul roundNearestTiesToEven (fp #b0 #b10000000100 #x1935625b5c23c) x0) (fp.mul roundNearestTiesToEven (fp #b0 #b10000000100 #xfee7ea52b4ec7) x1))))
 (let ((?x164 (fp.add roundNearestTiesToEven ?x161 (fp.mul roundNearestTiesToEven (fp #b0 #b10000000010 #x18a51e77e8df7) x2))))
 (let ((?x167 (fp.add roundNearestTiesToEven ?x164 (fp.mul roundNearestTiesToEven (fp #b0 #b10000000011 #x9eef43dbaa8d4) x3))))
 (let ((?x170 (fp.add roundNearestTiesToEven ?x167 (fp.mul roundNearestTiesToEven (fp #b0 #b10000000101 #x66a55d5b98e94) x4))))
 (let ((?x173 (fp.add roundNearestTiesToEven ?x170 (fp.mul roundNearestTiesToEven (fp #b0 #b10000000101 #x529f65fbcdbe7) x5))))
 (let ((?x176 (fp.add roundNearestTiesToEven ?x173 (fp.mul roundNearestTiesToEven (fp #b0 #b10000000011 #x0cb31158b2dde) x6))))
 (let ((?x179 (fp.add roundNearestTiesToEven ?x176 (fp.mul roundNearestTiesToEven (fp #b1 #b10000000101 #x74e9a50cdacc2) x7))))
 (let ((?x182 (fp.add roundNearestTiesToEven ?x179 (fp.mul roundNearestTiesToEven (fp #b0 #b10000000011 #x03894549b4747) x8))))
 (let ((?x185 (fp.add roundNearestTiesToEven ?x182 (fp.mul roundNearestTiesToEven (fp #b1 #b10000000100 #xe9d6ea095d0a7) x9))))
 (fp.leq ?x185 (fp #b1 #b10000000100 #x13b460be2b84e))))))))))))
(assert
 (let ((?x192 (fp.add roundNearestTiesToEven (fp.mul roundNearestTiesToEven (fp #b1 #b10000000101 #x09dfcfaf14031) x0) (fp.mul roundNearestTiesToEven (fp #b1 #b10000000100 #xef688de66cead) x1))))
 (let ((?x195 (fp.add roundNearestTiesToEven ?x192 (fp.mul roundNearestTiesToEven (fp #b1 #b10000000001 #x95da684325553) x2))))
 (let ((?x198 (fp.add roundNearestTiesToEven ?x195 (fp.mul roundNearestTiesToEven (fp #b1 #b10000000101 #xb6988ded0b40e) x3))))
 (let ((?x201 (fp.add roundNearestTiesToEven ?x198 (fp.mul roundNearestTiesToEven (fp #b1 #b10000000011 #x88d92b8ce6383) x4))))
 (let ((?x204 (fp.add roundNearestTiesToEven ?x201 (fp.mul roundNearestTiesToEven (fp #b0 #b10000000011 #x0e6990e96e616) x5))))
 (let ((?x207 (fp.add roundNearestTiesToEven ?x204 (fp.mul roundNearestTiesToEven (fp #b1 #b10000000001 #x2848d71ae1b28) x6))))
 (let ((?x210 (fp.add roundNearestTiesToEven ?x207 (fp.mul roundNearestTiesToEven (fp #b0 #b10000000101 #x2e39c95923a0c) x7))))
 (let ((?x213 (fp.add roundNearestTiesToEven ?x210 (fp.mul roundNearestTiesToEven (fp #b1 #b10000000100 #x802d730313bcf) x8))))
 (let ((?x216 (fp.add roundNearestTiesToEven ?x213 (fp.mul roundNearestTiesToEven (fp #b1 #b10000000100 #x13e926e2c31c4) x9))))
 (fp.leq ?x216 (fp #b1 #b10000000101 #x5a3832b7c66a3))))))))))))
(assert
 (let ((?x223 (fp.add roundNearestTiesToEven (fp.mul roundNearestTiesToEven (fp #b1 #b10000000010 #x2f0b157943f91) x0) (fp.mul roundNearestTiesToEven (fp #b1 #b10000000101 #x5c00fb318d223) x1))))
 (let ((?x226 (fp.add roundNearestTiesToEven ?x223 (fp.mul roundNearestTiesToEven (fp #b1 #b10000000100 #xf8dc4b72c6c9c) x2))))
 (let ((?x229 (fp.add roundNearestTiesToEven ?x226 (fp.mul roundNearestTiesToEven (fp #b0 #b10000000011 #x981934855c3a3) x3))))
 (let ((?x232 (fp.add roundNearestTiesToEven ?x229 (fp.mul roundNearestTiesToEven (fp #b0 #b10000000100 #x281299688854b) x4))))
 (let ((?x235 (fp.add roundNearestTiesToEven ?x232 (fp.mul roundNearestTiesToEven (fp #b0 #b10000000011 #x41f8b3b139fd5) x5))))
 (let ((?x238 (fp.add roundNearestTiesToEven ?x235 (fp.mul roundNearestTiesToEven (fp #b1 #b10000000100 #x8fbebb7ef3dbf) x6))))
 (let ((?x241 (fp.add roundNearestTiesToEven ?x238 (fp.mul roundNearestTiesToEven (fp #b1 #b10000000011 #x0070d869624a0) x7))))
 (let ((?x244 (fp.add roundNearestTiesToEven ?x241 (fp.mul roundNearestTiesToEven (fp #b0 #b10000000100 #x4f27634c55d74) x8))))
 (let ((?x247 (fp.add roundNearestTiesToEven ?x244 (fp.mul roundNearestTiesToEven (fp #b1 #b10000000011 #x81204e719667c) x9))))
 (fp.leq ?x247 (fp #b0 #b10000000100 #x5dd4e6d946834))))))))))))
(assert
 (let ((?x254 (fp.add roundNearestTiesToEven (fp.mul roundNearestTiesToEven (fp #b0 #b10000000100 #x7f52a867d98d7) x0) (fp.mul roundNearestTiesToEven (fp #b1 #b10000000101 #x1743254af9845) x1))))
 (let ((?x257 (fp.add roundNearestTiesToEven ?x254 (fp.mul roundNearestTiesToEven (fp #b1 #b10000000011 #x73df769fc05e0) x2))))
 (let ((?x260 (fp.add roundNearestTiesToEven ?x257 (fp.mul roundNearestTiesToEven (fp #b1 #b10000000100 #xd32d8fa66123c) x3))))
 (let ((?x263 (fp.add roundNearestTiesToEven ?x260 (fp.mul roundNearestTiesToEven (fp #b0 #b10000000100 #x2a0359f36263c) x4))))
 (let ((?x266 (fp.add roundNearestTiesToEven ?x263 (fp.mul roundNearestTiesToEven (fp #b0 #b10000000100 #xa1fa0a3e656a8) x5))))
 (let ((?x269 (fp.add roundNearestTiesToEven ?x266 (fp.mul roundNearestTiesToEven (fp #b1 #b10000000101 #x5ec62670b93e1) x6))))
 (let ((?x272 (fp.add roundNearestTiesToEven ?x269 (fp.mul roundNearestTiesToEven (fp #b0 #b10000000101 #x0f313c5de60d8) x7))))
 (let ((?x275 (fp.add roundNearestTiesToEven ?x272 (fp.mul roundNearestTiesToEven (fp #b0 #b10000000010 #x3dd5faf41cd38) x8))))
 (let ((?x278 (fp.add roundNearestTiesToEven ?x275 (fp.mul roundNearestTiesToEven (fp #b1 #b10000000011 #x1807952ab0a2c) x9))))
 (fp.leq ?x278 (fp #b0 #b10000000010 #x440e94e3771e2))))))))))))
(assert
 (let ((?x285 (fp.add roundNearestTiesToEven (fp.mul roundNearestTiesToEven (fp #b1 #b10000000100 #x6a73efa77eaf3) x0) (fp.mul roundNearestTiesToEven (fp #b0 #b10000000101 #x812a33a34f967) x1))))
 (let ((?x288 (fp.add roundNearestTiesToEven ?x285 (fp.mul roundNearestTiesToEven (fp #b0 #b10000000100 #x8a7dc5eb13c18) x2))))
 (let ((?x291 (fp.add roundNearestTiesToEven ?x288 (fp.mul roundNearestTiesToEven (fp #b0 #b10000000101 #x58cde92ab1b60) x3))))
 (let ((?x294 (fp.add roundNearestTiesToEven ?x291 (fp.mul roundNearestTiesToEven (fp #b0 #b10000000011 #xa6e9141a4ef78) x4))))
 (let ((?x297 (fp.add roundNearestTiesToEven ?x294 (fp.mul roundNearestTiesToEven (fp #b1 #b10000000010 #x85fdba516d8a5) x5))))
 (let ((?x300 (fp.add roundNearestTiesToEven ?x297 (fp.mul roundNearestTiesToEven (fp #b1 #b10000000011 #xde02d5438bfe0) x6))))
 (let ((?x303 (fp.add roundNearestTiesToEven ?x300 (fp.mul roundNearestTiesToEven (fp #b1 #b10000000100 #x26ff43938488f) x7))))
 (let ((?x306 (fp.add roundNearestTiesToEven ?x303 (fp.mul roundNearestTiesToEven (fp #b0 #b10000000101 #x429b3ea1918a0) x8))))
 (let ((?x309 (fp.add roundNearestTiesToEven ?x306 (fp.mul roundNearestTiesToEven (fp #b1 #b10000000010 #xd690237616eda) x9))))
 (fp.leq ?x309 (fp #b1 #b10000000100 #x02142609869f9))))))))))))
(assert
 (let ((?x316 (fp.add roundNearestTiesToEven (fp.mul roundNearestTiesToEven (fp #b1 #b10000000100 #xbedfd840bc274) x0) (fp.mul roundNearestTiesToEven (fp #b0 #b01111111100 #x4ebbd3b9f120e) x1))))
 (let ((?x319 (fp.add roundNearestTiesToEven ?x316 (fp.mul roundNearestTiesToEven (fp #b1 #b10000000010 #x384872d7aed8b) x2))))
 (let ((?x322 (fp.add roundNearestTiesToEven ?x319 (fp.mul roundNearestTiesToEven (fp #b0 #b10000000100 #x57e0bdf857ac3) x3))))
 (let ((?x325 (fp.add roundNearestTiesToEven ?x322 (fp.mul roundNearestTiesToEven (fp #b0 #b10000000001 #x7bfc5b7d8c32c) x4))))
 (let ((?x328 (fp.add roundNearestTiesToEven ?x325 (fp.mul roundNearestTiesToEven (fp #b1 #b10000000001 #x3a07806831447) x5))))
 (let ((?x331 (fp.add roundNearestTiesToEven ?x328 (fp.mul roundNearestTiesToEven (fp #b0 #b10000000101 #x2dd5ed5f8e8b1) x6))))
 (let ((?x334 (fp.add roundNearestTiesToEven ?x331 (fp.mul roundNearestTiesToEven (fp #b0 #b10000000100 #x64b4f967d772b) x7))))
 (let ((?x337 (fp.add roundNearestTiesToEven ?x334 (fp.mul roundNearestTiesToEven (fp #b0 #b10000000001 #xe9d0ad47af47b) x8))))
 (let ((?x340 (fp.add roundNearestTiesToEven ?x337 (fp.mul roundNearestTiesToEven (fp #b1 #b10000000100 #x09f1be20ff813) x9))))
 (fp.leq ?x340 (fp #b0 #b10000000100 #x3424105277e90))))))))))))
(assert
 (let ((?x347 (fp.add roundNearestTiesToEven (fp.mul roundNearestTiesToEven (fp #b0 #b10000000100 #x27a1a16af07b7) x0) (fp.mul roundNearestTiesToEven (fp #b1 #b10000000101 #x6d333fb3b95c9) x1))))
 (let ((?x350 (fp.add roundNearestTiesToEven ?x347 (fp.mul roundNearestTiesToEven (fp #b0 #b10000000100 #xa5bf23707ea09) x2))))
 (let ((?x353 (fp.add roundNearestTiesToEven ?x350 (fp.mul roundNearestTiesToEven (fp #b1 #b10000000011 #x5f6e629f2b733) x3))))
 (let ((?x356 (fp.add roundNearestTiesToEven ?x353 (fp.mul roundNearestTiesToEven (fp #b1 #b10000000101 #x2bafd4269b922) x4))))
 (let ((?x359 (fp.add roundNearestTiesToEven ?x356 (fp.mul roundNearestTiesToEven (fp #b1 #b10000000101 #x3ef605d76c262) x5))))
 (let ((?x362 (fp.add roundNearestTiesToEven ?x359 (fp.mul roundNearestTiesToEven (fp #b1 #b10000000101 #x3ca4abbdda3fa) x6))))
 (let ((?x365 (fp.add roundNearestTiesToEven ?x362 (fp.mul roundNearestTiesToEven (fp #b1 #b10000000011 #x299a720f21a61) x7))))
 (let ((?x368 (fp.add roundNearestTiesToEven ?x365 (fp.mul roundNearestTiesToEven (fp #b0 #b10000000101 #x1ca42495b96a0) x8))))
 (let ((?x371 (fp.add roundNearestTiesToEven ?x368 (fp.mul roundNearestTiesToEven (fp #b0 #b10000000101 #x0d9516962aa5b) x9))))
 (fp.leq ?x371 (fp #b0 #b10000000101 #x1425ee230280e))))))))))))
(assert
 (let ((?x378 (fp.add roundNearestTiesToEven (fp.mul roundNearestTiesToEven (fp #b1 #b10000000100 #xfe4ce4fd99c5c) x0) (fp.mul roundNearestTiesToEven (fp #b0 #b10000000100 #x32073548273c9) x1))))
 (let ((?x381 (fp.add roundNearestTiesToEven ?x378 (fp.mul roundNearestTiesToEven (fp #b0 #b10000000011 #xa2e8594d18b8c) x2))))
 (let ((?x384 (fp.add roundNearestTiesToEven ?x381 (fp.mul roundNearestTiesToEven (fp #b0 #b10000000100 #x00b937532c796) x3))))
 (let ((?x387 (fp.add roundNearestTiesToEven ?x384 (fp.mul roundNearestTiesToEven (fp #b1 #b10000000101 #x433becc73ad97) x4))))
 (let ((?x390 (fp.add roundNearestTiesToEven ?x387 (fp.mul roundNearestTiesToEven (fp #b1 #b10000000101 #x8e1eaccf97a95) x5))))
 (let ((?x393 (fp.add roundNearestTiesToEven ?x390 (fp.mul roundNearestTiesToEven (fp #b0 #b10000000011 #x0b6e1cd603cb8) x6))))
 (let ((?x396 (fp.add roundNearestTiesToEven ?x393 (fp.mul roundNearestTiesToEven (fp #b0 #b10000000011 #xb73de726dd8b3) x7))))
 (let ((?x399 (fp.add roundNearestTiesToEven ?x396 (fp.mul roundNearestTiesToEven (fp #b1 #b10000000101 #x24db85e9f722a) x8))))
 (let ((?x402 (fp.add roundNearestTiesToEven ?x399 (fp.mul roundNearestTiesToEven (fp #b1 #b10000000100 #x92adfede77348) x9))))
 (fp.leq ?x402 (fp #b0 #b10000000101 #x2e69bca5882c4))))))))))))
(assert
 (let ((?x409 (fp.add roundNearestTiesToEven (fp.mul roundNearestTiesToEven (fp #b0 #b10000000000 #x266c26ae9b717) x0) (fp.mul roundNearestTiesToEven (fp #b0 #b10000000011 #xc5a7f89c6bfe5) x1))))
(let ((?x412 (fp.add roundNearestTiesToEven ?x409 (fp.mul roundNearestTiesToEven (fp #b1 #b10000000011 #x04da1e6275d51) x2))))
(let ((?x415 (fp.add roundNearestTiesToEven ?x412 (fp.mul roundNearestTiesToEven (fp #b0 #b10000000100 #x23f192dd99dfd) x3))))
(let ((?x418 (fp.add roundNearestTiesToEven ?x415 (fp.mul roundNearestTiesToEven (fp #b1 #b10000000000 #xe2d059e36d27d) x4))))
(let ((?x421 (fp.add roundNearestTiesToEven ?x418 (fp.mul roundNearestTiesToEven (fp #b0 #b10000000101 #xa48a9b19c90ac) x5))))
(let ((?x424 (fp.add roundNearestTiesToEven ?x421 (fp.mul roundNearestTiesToEven (fp #b1 #b10000000011 #xf4822825f5f8e) x6))))
(let ((?x427 (fp.add roundNearestTiesToEven ?x424 (fp.mul roundNearestTiesToEven (fp #b1 #b10000000101 #x3b1903c2c6d31) x7))))
(let ((?x430 (fp.add roundNearestTiesToEven ?x427 (fp.mul roundNearestTiesToEven (fp #b1 #b10000000100 #x0f2839f698ead) x8))))
(let ((?x433 (fp.add roundNearestTiesToEven ?x430 (fp.mul roundNearestTiesToEven (fp #b0 #b10000000101 #x548e67e3f6ae1) x9))))
(fp.leq ?x433 (fp #b0 #b10000000101 #x131cbec2824a9))))))))))))
(check-sat)
(exit)
